

******************************************************************************
This program contains Ipopt, a library for large-scale nonlinear optimization.
 Ipopt is released as open source code under the Eclipse Public License (EPL).
         For more information visit https://github.com/coin-or/Ipopt
******************************************************************************

This is Ipopt version 3.14.11, running with linear solver MUMPS 5.5.1.

Number of nonzeros in equality constraint Jacobian...:        0
Number of nonzeros in inequality constraint Jacobian.:       16
Number of nonzeros in Lagrangian Hessian.............:        3

Total number of variables............................:        6
                     variables with only lower bounds:        0
                variables with lower and upper bounds:        6
                     variables with only upper bounds:        0
Total number of equality constraints.................:        0
Total number of inequality constraints...............:        6
        inequality constraints with only lower bounds:        4
   inequality constraints with lower and upper bounds:        0
        inequality constraints with only upper bounds:        2

iter    objective    inf_pr   inf_du lg(mu)  ||d||  lg(rg) alpha_du alpha_pr  ls
   0  1.0040894e+01 3.97e-05 7.03e+00  -1.0 0.00e+00    -  0.00e+00 0.00e+00   0
   1  8.6760002e+00 0.00e+00 8.28e+00  -1.0 1.93e-01    -  9.64e-02 1.00e+00f  1
   2  5.5227883e+00 0.00e+00 5.90e+00  -1.0 7.63e-01    -  1.90e-01 3.64e-01f  1
   3  1.0759604e+00 4.44e-02 2.78e+00  -1.0 8.20e-01    -  5.32e-01 7.79e-01f  1
   4  1.4178409e+00 0.00e+00 3.79e-02  -1.0 6.23e-02    -  1.00e+00 1.00e+00h  1
   5  8.7304275e-01 0.00e+00 7.29e-04  -1.7 5.55e-02    -  1.00e+00 1.00e+00f  1
   6  7.7349446e-01 0.00e+00 8.14e-06  -2.5 7.53e-03    -  1.00e+00 1.00e+00f  1
   7  7.6004588e-01 0.00e+00 2.73e-06  -3.8 2.09e-03    -  1.00e+00 1.00e+00f  1
   8  7.5929345e-01 0.00e+00 9.97e-09  -5.7 1.33e-04    -  1.00e+00 1.00e+00h  1
   9  7.5928420e-01 0.00e+00 1.22e-12  -8.6 1.56e-06    -  1.00e+00 1.00e+00h  1

Number of Iterations....: 9

                                   (scaled)                 (unscaled)
Objective...............:   7.5928419636564692e-01    7.5928419636564692e-01
Dual infeasibility......:   1.2202639449741045e-12    1.2202639449741045e-12
Constraint violation....:   0.0000000000000000e+00    0.0000000000000000e+00
Variable bound violation:   9.6866555580624347e-09    9.6866555580624347e-09
Complementarity.........:   2.5133830957353355e-09    2.5133830957353355e-09
Overall NLP error.......:   2.5133830957353355e-09    2.5133830957353355e-09


Number of objective function evaluations             = 10
Number of objective gradient evaluations             = 10
Number of equality constraint evaluations            = 0
Number of inequality constraint evaluations          = 10
Number of equality constraint Jacobian evaluations   = 0
Number of inequality constraint Jacobian evaluations = 10
Number of Lagrangian Hessian evaluations             = 9
Total seconds in IPOPT                               = 0.006

EXIT: Optimal Solution Found.
 
Ipopt 3.14.11: Optimal Solution Found
